language Essence 1.3

letting class be
        function(1 --> 1, 2 --> 3, 3 --> 2, 4 --> 4, 5 --> 1, 6 --> 4, 7 --> 4, 8 --> 5, 9 --> 1, 10 --> 7, 11 --> 5,
                 12 --> 7, 13 --> 6, 14 --> 7, 15 --> 7, 16 --> 3, 17 --> 4, 18 --> 3, 19 --> 2, 20 --> 1)
letting deck_length be 16
letting deck_width be 48
letting length be
        function(1 --> 11, 2 --> 5, 3 --> 7, 4 --> 2, 5 --> 12, 6 --> 2, 7 --> 10, 8 --> 2, 9 --> 15, 10 --> 15,
                 11 --> 13, 12 --> 13, 13 --> 12, 14 --> 8, 15 --> 1, 16 --> 15, 17 --> 15, 18 --> 7, 19 --> 4,
                 20 --> 6)
letting n_classes be 7
letting n_containers be 20
letting separation be function({1, 3} --> 5, {1, 4} --> 13)
letting width be
        function(1 --> 1, 2 --> 1, 3 --> 2, 4 --> 1, 5 --> 1, 6 --> 1, 7 --> 1, 8 --> 1, 9 --> 1, 10 --> 14, 11 --> 1,
                 12 --> 1, 13 --> 1, 14 --> 1, 15 --> 1, 16 --> 3, 17 --> 6, 18 --> 1, 19 --> 1, 20 --> 1)
